0
0
1
2
3
4
5
6
7
8
9
10
11
12
13
14
15
16
17
18
19
20
21
22
23
24
25
26
27
28
29
30
31
32
33
34
35
36
37
38
39
40
41
42
43
44
45
46
47
48
49
50
51
52
53
54
55
56
57
58
59
60
61
62
63
64
65
66
67
68
69
70
71
72
73
74
75
76
77
78
79
80
81
82
83
84
85
86
87
88
89
90
91
92
93
94
95
96
97
98
99
100
100
100
99
99
98
98
97
97
96
96
95
95
94
94
93
93
92
92
91
91
90
90
89
89
88
88
87
87
86
86
85
85
84
84
83
83
82
82
81
81
80
80
79
79
78
78
77
77
76
76
75
75
74
74
73
73
72
72
71
71
70
70
69
69
68
68
67
67
66
66
65
65
64
64
63
63
62
62
61
61
60
60
59
59
58
58
57
57
56
56
55
55
54
54
53
53
52
52
51
51
50
50
49
49
48
48
47
47
46
46
45
45
44
44
43
43
42
42
41
41
40
40
39
39
38
38
37
37
36
36
35
35
34
34
33
33
32
32
31
31
38
40
39
37
36
35
34
33
32
31
30
30
41
30
29
29
29
28
28
42
43
28
27
44
27
27
26
26
26
25
45
25
46
25
24
24
24
23
23
23
48
47
22
49
22
50
22
21
21
51
21
20
52
20
20
19
19
53
19
54
18
56
55
57
18
58
18
61
60
59
62
18
17
17
63
19
17
17
16
64
16
65
20
16
16
15
66
15
15
15
14
14
14
14
13
67
13
68
21
13
69
13
70
13
12
12
12
12
12
11
11
72
71
11
11
11
74
73
22
76
10
75
14
77
10
10
10
10
10
79
78
9
80
9
23
9
9
9
15
81
24
9
82
8
8
8
83
25
8
8
8
8
7
7
87
86
85
84
7
7
88
90
89
26
7
7
7
91
6
6
6
6
6
6
27
6
6
5
5
92
16
5
5
5
5
5
5
5
4
4
93
28
4
4
4
9
94
4
4
11
4
96
95
4
4
3
3
3
29
3
3
3
7
17
3
30
3
3
3
3
3
2
97
98
2
12
2
100
99
2
2
2
2
2
6
2
2
2
2
2
2
2
2
2
2
2
2
4
31
18
33
35
34
36
32
37
59
85
